db/inputs/2191916625153252357184412693032247173.smt2
(set-logic QF_FP)
(declare-const x0 (_ FloatingPoint 8 24))
(declare-const x1 (_ FloatingPoint 8 24))
(assert (fp.gt (fp.neg x0) (fp.sub RNE x1 x1)))
(assert (fp.geq (fp.neg x0) (fp.div RNE x1 x1)))
(assert (fp.eq (fp.add RNE x1 x1) (fp.sub RNE x1 x0)))
(check-sat)
