db/data/2191916625153252357184412693032247173.z3.out
sat
-------------------
2.861737773
